c Output_time 26.03.2020 18:13:31_+0100 1585242811090446831
c ** Program information **
c program_name                          "QBRG_debug"
c version                               "0.3.20"
c date                                  "25.3.2020"
c gid_id                                "673970833836058123f633335630c185360d632e"
c author                                "Oliver Kullmann"
c url                                   "https://github.com/OKullmann/oklibrary/blob/master/Satisfiability/Transformers/Generators/Random/QBRG.cpp"
c ** Machine information **
c machine_name                          "chyna-Lenovo-G50-70"
c bogomips                              3791.08
c ** Compilation information **
c compiler_version                      "g++ 7.5.0"
c compilation_date                      "Mar_26_2020 11:16:30"
c compilation_options                   "--std=c++17 -pedantic -fmax-errors=5 -Wall -Wextra -g -D_GLIBCXX_DEBUG"
c NDEBUG                                0
c OPTIMIZE                              0
c ** Parameters **
c command-line                          "./QBRG_debug" "e40 a40 40" "572*1,1|2-2,1|3-3,1" "" "1,t" ""
c output                                "QuBlRaGe_120_572_1585242811090268200.qdimacs"
c options                               "filtered,renamed"
c num_quantifier_blocks                 3
c  quantifier_blocks                    1:e1-40 2:a41-80 3:e81-120
c num_clause-blocks                     1
c  clause-blocks                        572 * {1-40,1,1/2} | {41-80,1,1/2} | {81-120,1,1/2}
c num_e-seeds                           30+2=32
c  e-seeds                              1 0 1 0 4 120 2 40 1 40 0 40 1 572 3 1 1 1 1 2 2 2 1 1 2 3 3 1 1 2 1 1585242811090267350
p cnf 120 572
e 1 2 3 4 5 6 7 8 9 10 11 12 13 14 15 16 17 18 19 20 21 22 23 24 25 26 27 28 29 30 31 32 33 34 35 36 37 38 39 40 0
a 41 42 43 44 45 46 47 48 49 50 51 52 53 54 55 56 57 58 59 60 61 62 63 64 65 66 67 68 69 70 71 72 73 74 75 76 77 78 79 80 0
e 81 82 83 84 85 86 87 88 89 90 91 92 93 94 95 96 97 98 99 100 101 102 103 104 105 106 107 108 109 110 111 112 113 114 115 116 117 118 119 120 0
-36 43 -81 0
-39 -58 -81 0
-26 64 -81 0
-31 -70 -81 0
22 72 -81 0
-9 80 -81 0
-25 -45 81 0
25 -51 81 0
26 -53 81 0
6 -55 81 0
39 68 81 0
17 -78 81 0
-33 -60 -82 0
6 61 -82 0
13 -69 -82 0
-23 -69 -82 0
5 69 -82 0
33 71 -82 0
-39 41 82 0
-23 44 82 0
6 -49 82 0
22 50 82 0
-24 -53 82 0
-20 54 82 0
33 55 82 0
33 69 82 0
9 75 82 0
8 -41 -83 0
-28 -43 -83 0
7 -50 -83 0
12 -53 -83 0
-33 53 -83 0
39 -43 83 0
-35 49 83 0
-3 -51 83 0
-4 -63 83 0
22 -63 83 0
10 74 83 0
-11 -78 83 0
23 -44 -84 0
28 -52 -84 0
-29 -63 -84 0
-25 64 -84 0
24 67 -84 0
31 47 84 0
-33 -53 84 0
33 62 84 0
22 73 84 0
-17 -79 84 0
5 -41 -85 0
37 59 -85 0
28 77 -85 0
14 -45 85 0
36 -55 85 0
-30 -56 85 0
7 60 85 0
-17 -62 85 0
-16 -67 85 0
-40 72 85 0
11 -77 85 0
4 -51 -86 0
29 -51 -86 0
-31 60 -86 0
9 69 -86 0
7 77 -86 0
-22 80 -86 0
14 -42 86 0
-18 -42 86 0
-27 45 86 0
-37 57 86 0
-9 -58 86 0
10 59 86 0
5 66 86 0
4 68 86 0
6 77 86 0
32 -44 -87 0
5 -76 -87 0
14 79 -87 0
18 41 87 0
-30 42 87 0
35 46 87 0
5 -51 87 0
-32 52 87 0
4 60 87 0
11 65 87 0
-17 -66 87 0
26 -69 87 0
-29 -70 87 0
11 71 87 0
-35 73 87 0
-17 -74 87 0
19 80 87 0
-15 42 -88 0
-24 -61 -88 0
-29 61 -88 0
14 75 -88 0
9 78 -88 0
-14 -80 -88 0
32 -43 88 0
-28 -55 88 0
-17 -78 88 0
-19 52 -89 0
33 55 -89 0
15 -61 -89 0
-36 -61 -89 0
-36 -64 -89 0
-14 -71 -89 0
-24 73 -89 0
9 -79 -89 0
-27 41 89 0
12 42 89 0
-13 -46 89 0
-1 -47 89 0
34 52 89 0
-24 60 89 0
29 63 89 0
-18 69 89 0
35 -70 89 0
-23 77 89 0
6 -41 -90 0
35 53 -90 0
-10 61 -90 0
-8 65 -90 0
7 66 -90 0
-40 70 -90 0
29 -41 90 0
-9 42 90 0
14 -46 90 0
30 -52 90 0
-6 59 90 0
-27 -62 90 0
6 -63 90 0
-29 -68 90 0
1 74 90 0
24 -76 90 0
17 -78 90 0
-35 -79 90 0
-18 -80 90 0
22 45 -91 0
-12 -48 -91 0
-7 -52 -91 0
-34 57 -91 0
-8 59 -91 0
40 -60 -91 0
13 62 -91 0
-4 64 -91 0
-37 68 -91 0
11 -76 -91 0
19 77 -91 0
5 -46 91 0
38 46 91 0
39 -48 91 0
24 51 91 0
40 56 91 0
-18 -65 91 0
-26 -70 91 0
13 73 91 0
-11 78 91 0
-39 -80 91 0
-34 59 -92 0
39 59 -92 0
-34 -66 -92 0
-17 -67 -92 0
7 -68 -92 0
11 68 -92 0
18 71 -92 0
-38 -72 -92 0
-3 73 -92 0
-21 -77 -92 0
-33 -43 92 0
30 -45 92 0
14 45 92 0
30 47 92 0
3 55 92 0
8 -57 92 0
-19 57 92 0
13 60 92 0
-20 -61 92 0
34 -65 92 0
19 65 92 0
-6 67 92 0
-38 41 -93 0
-20 -64 -93 0
-3 -73 -93 0
28 -73 -93 0
22 73 -93 0
-7 -76 -93 0
30 57 93 0
-11 -59 93 0
19 62 93 0
15 67 93 0
2 -75 93 0
27 -46 -94 0
1 47 -94 0
9 47 -94 0
-14 -52 -94 0
20 55 -94 0
23 59 -94 0
-40 66 -94 0
2 -69 -94 0
11 70 -94 0
32 -78 -94 0
3 -68 94 0
32 69 94 0
-18 -71 94 0
-16 79 94 0
-34 47 -95 0
-32 -49 -95 0
37 51 -95 0
8 62 -95 0
23 66 -95 0
26 -43 95 0
23 52 95 0
-40 58 95 0
15 -61 95 0
-4 68 95 0
-6 54 -96 0
-33 56 -96 0
26 68 -96 0
29 71 -96 0
4 73 -96 0
-37 -46 96 0
-37 53 96 0
15 -55 96 0
35 -59 96 0
18 -69 96 0
-20 41 -97 0
5 67 -97 0
-3 -72 -97 0
-11 -76 -97 0
-5 53 97 0
-29 -55 97 0
-36 -55 97 0
-19 -56 97 0
34 -58 97 0
6 -75 97 0
-7 -48 -98 0
20 49 -98 0
30 -54 -98 0
2 57 -98 0
-10 -61 -98 0
-33 -61 -98 0
10 62 -98 0
-24 64 -98 0
30 75 -98 0
-38 75 -98 0
36 76 -98 0
-34 -44 98 0
34 58 98 0
-6 65 98 0
16 65 98 0
39 76 98 0
-24 79 98 0
-11 -47 -99 0
24 -47 -99 0
-16 51 -99 0
-23 53 -99 0
-19 -71 -99 0
-39 71 -99 0
16 -45 99 0
-26 53 99 0
39 -63 99 0
14 -70 99 0
16 -76 99 0
-38 41 -100 0
11 -46 -100 0
-18 -48 -100 0
-29 -54 -100 0
-40 -54 -100 0
-16 -59 -100 0
17 68 -100 0
22 69 -100 0
-12 78 -100 0
12 -79 -100 0
-16 43 100 0
8 -52 100 0
14 -53 100 0
-5 60 100 0
9 63 100 0
21 -67 100 0
-1 -71 100 0
29 -76 100 0
6 -77 100 0
-4 -79 100 0
8 48 -101 0
-34 62 -101 0
18 64 -101 0
-23 -65 -101 0
-24 70 -101 0
-16 46 101 0
38 -52 101 0
-4 60 101 0
-34 -62 101 0
20 -66 101 0
-11 71 101 0
21 74 101 0
-1 52 -102 0
31 52 -102 0
-19 60 -102 0
-10 63 -102 0
25 72 -102 0
-28 43 102 0
-7 75 102 0
35 -47 -103 0
-22 60 -103 0
11 64 -103 0
17 -66 -103 0
30 -66 -103 0
-5 -78 -103 0
30 79 -103 0
-39 41 103 0
-13 42 103 0
27 -44 103 0
-11 -54 103 0
-26 -54 103 0
-36 56 103 0
-4 67 103 0
-11 41 -104 0
17 47 -104 0
-39 -53 -104 0
-13 43 104 0
21 53 104 0
-19 55 104 0
-36 -57 104 0
-40 -63 104 0
-37 68 104 0
-32 -71 104 0
3 72 104 0
15 75 104 0
-10 -49 -105 0
-40 -53 -105 0
-32 -69 -105 0
-26 69 -105 0
-33 -70 -105 0
-14 -71 -105 0
-23 -43 105 0
-25 53 105 0
35 -55 105 0
-40 58 105 0
19 61 105 0
-21 64 105 0
17 -65 105 0
5 -71 105 0
-10 71 105 0
-29 76 105 0
-10 77 105 0
31 80 105 0
-33 -42 -106 0
7 -51 -106 0
22 -51 -106 0
-2 52 -106 0
9 -60 -106 0
9 -70 -106 0
-32 75 -106 0
-21 -64 106 0
-25 -73 106 0
10 -79 106 0
-3 51 -107 0
25 -53 -107 0
8 -56 -107 0
37 60 -107 0
24 63 -107 0
12 75 -107 0
27 -76 -107 0
19 80 -107 0
13 -41 107 0
-10 42 107 0
40 42 107 0
17 -47 107 0
38 48 107 0
11 54 107 0
-8 45 -108 0
-13 50 -108 0
6 51 -108 0
-5 -55 -108 0
-29 57 -108 0
-29 58 -108 0
-21 -59 -108 0
4 76 -108 0
-16 -45 108 0
-19 -46 108 0
29 56 108 0
7 58 108 0
-25 -60 108 0
36 -62 108 0
-19 66 108 0
18 -54 -109 0
-3 54 -109 0
21 -55 -109 0
-21 65 -109 0
-8 -67 -109 0
7 75 -109 0
35 -78 -109 0
-9 50 109 0
-12 -54 109 0
-39 -59 109 0
13 65 109 0
36 -67 109 0
-11 67 109 0
8 69 109 0
-19 79 109 0
-20 -44 -110 0
-38 -46 -110 0
-4 61 -110 0
-30 65 -110 0
28 -43 110 0
-40 45 110 0
-10 -47 110 0
7 -48 110 0
33 -49 110 0
15 -54 110 0
38 67 110 0
33 68 110 0
-22 -69 110 0
-13 -70 110 0
4 -71 110 0
-29 -43 -111 0
11 -46 -111 0
5 68 -111 0
-35 -77 -111 0
-11 47 111 0
17 -49 111 0
-15 -52 111 0
-16 -54 111 0
39 -66 111 0
23 -68 111 0
-2 70 111 0
-11 -75 111 0
6 43 -112 0
-23 -55 -112 0
30 -55 -112 0
-36 65 -112 0
-40 -73 -112 0
5 79 -112 0
16 -41 112 0
-30 51 112 0
-17 52 112 0
30 55 112 0
-3 -60 112 0
5 -68 112 0
16 70 112 0
-18 79 112 0
-18 -41 -113 0
33 -44 -113 0
3 59 -113 0
-19 61 -113 0
-24 67 -113 0
24 68 -113 0
-12 69 -113 0
-10 -42 113 0
12 49 113 0
-4 -52 113 0
-17 54 113 0
13 57 113 0
4 -64 113 0
-10 -77 113 0
18 -42 -114 0
-6 -45 -114 0
-23 -46 -114 0
-9 -47 -114 0
38 54 -114 0
40 66 -114 0
14 67 -114 0
-7 69 -114 0
-12 -51 114 0
-9 54 114 0
38 -56 114 0
21 -63 114 0
24 65 114 0
33 -66 114 0
28 73 114 0
37 45 -115 0
30 -69 -115 0
38 76 -115 0
-22 -77 -115 0
24 -79 -115 0
20 41 115 0
-1 43 115 0
2 -59 115 0
34 66 115 0
-11 70 115 0
1 -71 115 0
-37 74 115 0
-27 76 115 0
-6 -78 115 0
-11 -79 115 0
15 -49 -116 0
-35 -50 -116 0
10 -51 -116 0
9 58 -116 0
18 61 -116 0
16 62 -116 0
-27 63 -116 0
32 67 -116 0
31 -76 -116 0
-7 77 -116 0
-26 -42 116 0
7 -49 116 0
11 56 116 0
-17 -57 116 0
-3 62 116 0
25 68 116 0
-21 70 116 0
-30 75 116 0
34 50 -117 0
1 -52 -117 0
4 59 -117 0
2 -65 -117 0
-12 72 -117 0
-36 -74 -117 0
-31 -75 -117 0
-6 -78 -117 0
-29 78 -117 0
34 -43 117 0
21 -52 117 0
16 -53 117 0
-27 54 117 0
-30 57 117 0
-14 59 117 0
10 63 117 0
14 74 117 0
-30 -75 117 0
14 -43 -118 0
16 -44 -118 0
-29 -63 -118 0
39 64 -118 0
-21 -65 -118 0
25 -67 -118 0
-9 68 -118 0
-32 72 -118 0
-3 73 -118 0
-26 79 -118 0
-17 41 118 0
-27 -43 118 0
15 -48 118 0
-38 -51 118 0
-24 -57 118 0
26 -58 118 0
13 -64 118 0
32 66 118 0
-31 -71 118 0
8 47 -119 0
-18 48 -119 0
-32 -55 -119 0
17 59 -119 0
39 -65 -119 0
15 69 -119 0
24 -75 -119 0
-36 43 119 0
-31 -50 119 0
14 -64 119 0
10 72 119 0
-28 -78 119 0
5 79 119 0
-12 -41 -120 0
12 41 -120 0
7 -46 -120 0
-24 47 -120 0
15 -50 -120 0
-23 52 -120 0
35 60 -120 0
-34 61 -120 0
15 64 -120 0
-4 70 -120 0
-33 -76 -120 0
-26 -44 120 0
28 47 120 0
6 55 120 0
7 55 120 0
8 57 120 0
-16 -58 120 0
-17 -73 120 0
